Problem:    
Rows:       68
Columns:    29 (20 integer, 20 binary)
Non-zeros:  208
Status:     INTEGER OPTIMAL
Objective:  value = 5.5823 (MINimum)

   No.   Row name        Activity     Lower bound   Upper bound
------ ------------    ------------- ------------- -------------
     1 r.5                   1005.58             0               
     2 r.6                  -994.418      -996.972               
     3 r.7                    5.5823             0               
     4 r.8                    5.5823      -997.297               
     5 r.9                   1005.58             0               
     6 r.10                 -997.445      -999.799               
     7 r.11                   5.5823             0               
     8 r.12                   5.5823      -999.605               
     9 r.13                   5.5823             0               
    10 r.14                   5.5823      -991.689               
    11 r.15                  1005.58             0               
    12 r.16                 -994.418       -994.47               
    13 r.17                  1005.58             0               
    14 r.18                 -999.948      -999.948               
    15 r.19                   5.5823             0               
    16 r.20                   0.0521      -999.627               
    17 r.21                        1             1             = 
    18 r.22                        1             1             = 
    19 r.23                        1             1             = 
    20 r.24                        1             1             = 
    21 r.25                        2             2               
    22 r.26                       -2         -1001               
    23 r.27                  -3.0275      -999.799               
    24 r.28                     1000             2               
    25 r.29                    -1000         -1001               
    26 r.30                     2000      -999.605               
    27 r.31                     1001             2               
    28 r.32                    -1001         -1001               
    29 r.33                     2000      -991.689               
    30 r.34                     1001             2               
    31 r.35                    -1001         -1001               
    32 r.36                     2000       -994.47               
    33 r.37                  -994.47      -996.972               
    34 r.38                   5.5302      -997.297               
    35 r.39                  -994.47      -996.972               
    36 r.40                   5.5302      -997.297               
    37 r.41                        2             2               
    38 r.42                       -2         -1001               
    39 r.43                   3.0275        3.0275               
    40 r.44                     1000             2               
    41 r.45                    -1000         -1001               
    42 r.46                     2000       2.70311               
    43 r.47                     1001             2               
    44 r.48                    -1001         -1001               
    45 r.49                  2003.03      -991.689               
    46 r.50                     1001             2               
    47 r.51                    -1001         -1001               
    48 r.52                     2000       -994.47               
    49 r.53                 -997.497      -999.799               
    50 r.54                   5.5302      -999.605               
    51 r.55                 -997.497      -999.799               
    52 r.56                   5.5302      -999.605               
    53 r.57                     1001             2               
    54 r.58                    -1001         -1001               
    55 r.59                     2000        3.0275               
    56 r.60                     1001             2               
    57 r.61                    -1001         -1001               
    58 r.62                     2000       2.70311               
    59 r.63                     1001             2               
    60 r.64                    -1001         -1001               
    61 r.65                  1996.97        0.2005               
    62 r.66                     1001             2               
    63 r.67                    -1001         -1001               
    64 r.68                     2000      0.395444               
    65 r.69                   5.5302      -991.689               
    66 r.70                  -994.47       -994.47               
    67 r.71                   5.5302      -991.689               
    68 r.72                  -994.47       -994.47               

   No. Column name       Activity     Lower bound   Upper bound
------ ------------    ------------- ------------- -------------
     1 tt                     5.5823             0               
     2 s_1_1        *              1             0             1 
     3 t_1_1                       0             0               
     4 s_2_1        *              0             0             1 
     5 t_2_1                       0             0               
     6 s_1_2        *              1             0             1 
     7 t_1_2                  3.0275             0               
     8 s_2_2        *              0             0             1 
     9 t_2_2                       0             0               
    10 s_1_3        *              0             0             1 
    11 t_1_3                       0             0               
    12 s_2_3        *              1             0             1 
    13 t_2_3                       0             0               
    14 s_1_4        *              1             0             1 
    15 t_1_4                  5.5302             0               
    16 s_2_4        *              0             0             1 
    17 t_2_4                  5.5302             0               
    18 r_1_1_2      *              0             0             1 
    19 u_1_1_2      *              0             0             1 
    20 r_2_1_2      *              1             0             1 
    21 u_2_1_2      *              0             0             1 
    22 r_1_1_3      *              1             0             1 
    23 u_1_1_3      *              0             0             1 
    24 r_2_1_3      *              1             0             1 
    25 u_2_1_3      *              0             0             1 
    26 r_1_2_3      *              1             0             1 
    27 u_1_2_3      *              0             0             1 
    28 r_2_2_3      *              1             0             1 
    29 u_2_2_3      *              0             0             1 

Integer feasibility conditions:

KKT.PE: max.abs.err = 0.00e+00 on row 0
        max.rel.err = 0.00e+00 on row 0
        High quality

KKT.PB: max.abs.err = 0.00e+00 on row 0
        max.rel.err = 0.00e+00 on row 0
        High quality

End of output
